AES/1_2_8/ssaes_r1-20_c2_rw1_e8_f0_k1-20_aes_1base_box_aes_mc_bidirectional/ExperimentMinisat_r14_k6cnf_2011-12-02-131802/Result
WARNING: for repeatability, setting FPU to use double precision
============================[ Problem Statistics ]=============================
|                                                                             |
|  Number of variables:          1168                                         |
|  Number of clauses:          187468                                         |
|  Parse time:                   0.10 s                                       |
|  Eliminated clauses:           0.01 Mb                                      |
|  Simplification time:          6.33 s                                       |
|                                                                             |
=============================[ Search Statistics ]==============================
| Conflicts  |          ORIGINAL         |          LEARNT          | Progress |
|            |    Vars  Clauses Literals |    Limit  Clauses Lit/Cl |          |
================================================================================
|        100 |     784   186476  1269784 |    68374      100     16 | 12.329 % |
|        250 |     784   186476  1269784 |    75211      250     19 | 12.329 % |
|        475 |     784   186476  1269784 |    82733      475     19 | 12.329 % |
|        812 |     784   186476  1269784 |    91006      812     19 | 12.329 % |
|       1318 |     784   186476  1269784 |   100107     1318     18 | 12.329 % |
|       2077 |     784   186476  1269784 |   110117     2077     19 | 12.329 % |
|       3216 |     784   186476  1269784 |   121129     3216     20 | 12.329 % |
|       4924 |     784   186476  1269784 |   133242     4924     20 | 12.329 % |
|       7486 |     784   186476  1269784 |   146566     7486     20 | 12.329 % |
|      11330 |     784   186476  1269784 |   161223    11330     20 | 12.329 % |
|      17096 |     784   186476  1269784 |   177345    17096     20 | 12.329 % |
|      25745 |     784   186476  1269784 |   195080    25745     19 | 12.329 % |
|      38719 |     784   186476  1269784 |   214588    38719     18 | 12.329 % |
|      58180 |     784   186476  1269784 |   236047    58180     16 | 12.329 % |
|      87372 |     784   186476  1269784 |   259652    87372     15 | 12.329 % |
===============================================================================
restarts              : 254
conflicts             : 87384          (357 /sec)
decisions             : 98599          (0.00 % random) (403 /sec)
propagations          : 32028732       (130757 /sec)
conflict literals     : 1273248        (48.49 % deleted)
Memory used           : 34.00 MB
CPU time              : 244.949 s

SATISFIABLE
